
  22   10
  10   10   10   10   10   10   10   10   10   10

   0   0   0   0   0   0   0   0   0   0   0   7 2 3 4 8 9 11 16 
   2  10  10  10  10  10  10  10  10  10  10   3 15 6 5 
   6  10  10  10  10  10  10  10  10  10  10   5 20 15 14 10 7 
   1  10  10  10  10  10  10  10  10  10  10   2 15 5 
   5  10  10  10  10  10  10  10  10  10  10   4 21 20 14 7 
   1  10  10  10  10  10  10  10  10  10  10   4 20 18 14 13 
   3  10  10  10  10  10  10  10  10  10  10   3 19 18 12 
   2  10  10  10  10  10  10  10  10  10  10   3 21 18 13 
   4  10  10  10  10  10  10  10  10  10  10   3 19 18 17 
   4  10  10  10  10  10  10  10  10  10  10   2 18 13 
   7  10  10  10  10  10  10  10  10  10  10   2 20 13 
   7  10  10  10  10  10  10  10  10  10  10   1 13 
   1  10  10  10  10  10  10  10  10  10  10   1 17 
   9  10  10  10  10  10  10  10  10  10  10   1 19 
   1  10  10  10  10  10  10  10  10  10  10   1 21 
   3  10  10  10  10  10  10  10  10  10  10   1 19 
   9  10  10  10  10  10  10  10  10  10  10   1 22
   2  10  10  10  10  10  10  10  10  10  10   1 22
   7  10  10  10  10  10  10  10  10  10  10   1 22
   3  10  10  10  10  10  10  10  10  10  10   1 22
   9  10  10  10  10  10  10  10  10  10  10   1 22
   0   0   0   0   0   0   0   0   0   0   0   0 
